NAME : in_house_8_0
TYPE : TSP
DIMENSION : 8
EDGE_WEIGHT_TYPE : EXPLICIT
EDGE_WEIGHT_FORMAT : UPPER_ROW
COMMENT : INVERSION_SHIFT=3
EDGE_WEIGHT_SECTION
41
38
55
31
48
58
28
31
21
33
9
7
44
40
36
2
47
34
31
61
22
3
24
2
49
24
52
58
